100
1) [ 83 82 81 79 78 76 71 70 73 77 80 63 0 47 46 49 52 24 25 27 30 28 26 23 21 0 1 2 99 100 97 95 98 91 0 5 75 96 94 93 92 85 84 88 89 86 87 90 0 10 12 14 16 15 19 18 17 13 0 22 29 34 36 39 38 37 33 32 0 68 55 54 53 56 58 60 59 57 43 0 3 4 6 9 11 8 7 0 69 66 64 61 72 74 62 65 67 0 41 40 42 44 45 48 51 50 31 35 20 -1 -1 -1 -1 -1 -1 -1 -1 -1 -1 -1 -1 -1 -1 -1 -1 ] [ 911 -0 ] [ 0 0 0 ] # 0 # 0 - 
2) [ 83 82 81 79 78 76 71 70 73 77 80 63 0 47 46 49 52 24 25 27 30 28 26 23 21 0 1 2 99 100 97 95 98 91 0 5 75 96 94 93 92 85 84 88 89 86 87 90 0 10 12 14 16 15 19 18 17 13 0 22 29 34 36 39 38 37 33 32 0 68 55 54 53 56 58 60 59 57 43 0 3 4 6 9 11 8 7 0 69 66 64 61 72 74 62 65 67 0 41 40 42 44 45 48 51 50 31 35 20 -1 -1 -1 -1 -1 -1 -1 -1 -1 -1 -1 -1 -1 -1 -1 -1 ] [ 911 -0 ] [ 0 0 0 ] # 0 # 0 - 
3) [ 83 82 81 79 78 76 71 70 73 77 80 63 0 47 46 49 52 24 25 27 30 28 26 23 21 0 1 2 99 100 97 95 98 91 0 5 75 96 94 93 92 85 84 88 89 86 87 90 0 10 12 14 16 15 19 18 17 13 0 22 29 34 36 39 38 37 33 32 0 68 55 54 53 56 58 60 59 57 43 0 3 4 6 9 11 8 7 0 69 66 64 61 72 74 62 65 67 0 41 40 42 44 45 48 51 50 31 35 20 -1 -1 -1 -1 -1 -1 -1 -1 -1 -1 -1 -1 -1 -1 -1 -1 ] [ 911 -0 ] [ 0 0 0 ] # 0 # 0 - 
4) [ 83 82 81 79 78 76 71 70 73 77 80 63 0 47 46 49 52 24 25 27 30 28 26 23 21 0 1 2 99 100 97 95 98 91 0 5 75 96 94 93 92 85 84 88 89 86 87 90 0 10 12 14 16 15 19 18 17 13 0 22 29 34 36 39 38 37 33 32 0 68 55 54 53 56 58 60 59 57 43 0 3 4 6 9 11 8 7 0 69 66 64 61 72 74 62 65 67 0 41 40 42 44 45 48 51 50 31 35 20 -1 -1 -1 -1 -1 -1 -1 -1 -1 -1 -1 -1 -1 -1 -1 -1 ] [ 911 -0 ] [ 0 0 0 ] # 0 # 0 - 
5) [ 83 82 81 79 78 76 71 70 73 77 80 63 0 47 46 49 52 24 25 27 30 28 26 23 21 0 1 2 99 100 97 95 98 91 0 5 75 96 94 93 92 85 84 88 89 86 87 90 0 10 12 14 16 15 19 18 17 13 0 22 29 34 36 39 38 37 33 32 0 68 55 54 53 56 58 60 59 57 43 0 3 4 6 9 11 8 7 0 69 66 64 61 72 74 62 65 67 0 41 40 42 44 45 48 51 50 31 35 20 -1 -1 -1 -1 -1 -1 -1 -1 -1 -1 -1 -1 -1 -1 -1 -1 ] [ 911 -0 ] [ 0 0 0 ] # 0 # 0 - 
6) [ 83 82 81 79 78 76 71 70 73 77 80 63 0 47 46 49 52 24 25 27 30 28 26 23 21 0 1 2 99 100 97 95 98 91 0 5 75 96 94 93 92 85 84 88 89 86 87 90 0 10 12 14 16 15 19 18 17 13 0 22 29 34 36 39 38 37 33 32 0 68 55 54 53 56 58 60 59 57 43 0 3 4 6 9 11 8 7 0 69 66 64 61 72 74 62 65 67 0 41 40 42 44 45 48 51 50 31 35 20 -1 -1 -1 -1 -1 -1 -1 -1 -1 -1 -1 -1 -1 -1 -1 -1 ] [ 911 -0 ] [ 0 0 0 ] # 0 # 0 - 
7) [ 83 82 81 79 78 76 71 70 73 77 80 63 0 47 46 49 52 24 25 27 30 28 26 23 21 0 1 2 99 100 97 95 98 91 0 5 75 96 94 93 92 85 84 88 89 86 87 90 0 10 12 14 16 15 19 18 17 13 0 22 29 34 36 39 38 37 33 32 0 68 55 54 53 56 58 60 59 57 43 0 3 4 6 9 11 8 7 0 69 66 64 61 72 74 62 65 67 0 41 40 42 44 45 48 51 50 31 35 20 -1 -1 -1 -1 -1 -1 -1 -1 -1 -1 -1 -1 -1 -1 -1 -1 ] [ 911 -0 ] [ 0 0 0 ] # 0 # 0 - 
8) [ 83 82 81 79 78 76 71 70 73 77 80 63 0 47 46 49 52 24 25 27 30 28 26 23 21 0 1 2 99 100 97 95 98 91 0 5 75 96 94 93 92 85 84 88 89 86 87 90 0 10 12 14 16 15 19 18 17 13 0 22 29 34 36 39 38 37 33 32 0 68 55 54 53 56 58 60 59 57 43 0 3 4 6 9 11 8 7 0 69 66 64 61 72 74 62 65 67 0 41 40 42 44 45 48 51 50 31 35 20 -1 -1 -1 -1 -1 -1 -1 -1 -1 -1 -1 -1 -1 -1 -1 -1 ] [ 911 -0 ] [ 0 0 0 ] # 0 # 0 - 
9) [ 83 82 81 79 78 76 71 70 73 77 80 63 0 47 46 49 52 24 25 27 30 28 26 23 21 0 1 2 99 100 97 95 98 91 0 5 75 96 94 93 92 85 84 88 89 86 87 90 0 10 12 14 16 15 19 18 17 13 0 22 29 34 36 39 38 37 33 32 0 68 55 54 53 56 58 60 59 57 43 0 3 4 6 9 11 8 7 0 69 66 64 61 72 74 62 65 67 0 41 40 42 44 45 48 51 50 31 35 20 -1 -1 -1 -1 -1 -1 -1 -1 -1 -1 -1 -1 -1 -1 -1 -1 ] [ 911 -0 ] [ 0 0 0 ] # 0 # 0 - 
10) [ 83 82 81 79 78 76 71 70 73 77 80 63 0 47 46 49 52 24 25 27 30 28 26 23 21 0 1 2 99 100 97 95 98 91 0 5 75 96 94 93 92 85 84 88 89 86 87 90 0 10 12 14 16 15 19 18 17 13 0 22 29 34 36 39 38 37 33 32 0 68 55 54 53 56 58 60 59 57 43 0 3 4 6 9 11 8 7 0 69 66 64 61 72 74 62 65 67 0 41 40 42 44 45 48 51 50 31 35 20 -1 -1 -1 -1 -1 -1 -1 -1 -1 -1 -1 -1 -1 -1 -1 -1 ] [ 911 -0 ] [ 0 0 0 ] # 0 # 0 - 
11) [ 83 82 81 79 78 76 71 70 73 77 80 63 0 47 46 49 52 24 25 27 30 28 26 23 21 0 1 2 99 100 97 95 98 91 0 5 75 96 94 93 92 85 84 88 89 86 87 90 0 10 12 14 16 15 19 18 17 13 0 22 29 34 36 39 38 37 33 32 0 68 55 54 53 56 58 60 59 57 43 0 3 4 6 9 11 8 7 0 69 66 64 61 72 74 62 65 67 0 41 40 42 44 45 48 51 50 31 35 20 -1 -1 -1 -1 -1 -1 -1 -1 -1 -1 -1 -1 -1 -1 -1 -1 ] [ 911 -0 ] [ 0 0 0 ] # 0 # 0 - 
12) [ 83 82 81 79 78 76 71 70 73 77 80 63 0 47 46 49 52 24 25 27 30 28 26 23 21 0 1 2 99 100 97 95 98 91 0 5 75 96 94 93 92 85 84 88 89 86 87 90 0 10 12 14 16 15 19 18 17 13 0 22 29 34 36 39 38 37 33 32 0 68 55 54 53 56 58 60 59 57 43 0 3 4 6 9 11 8 7 0 69 66 64 61 72 74 62 65 67 0 41 40 42 44 45 48 51 50 31 35 20 -1 -1 -1 -1 -1 -1 -1 -1 -1 -1 -1 -1 -1 -1 -1 -1 ] [ 911 -0 ] [ 0 0 0 ] # 0 # 0 - 
13) [ 83 82 81 79 78 76 71 70 73 77 80 63 0 47 46 49 52 24 25 27 30 28 26 23 21 0 1 2 99 100 97 95 98 91 0 5 75 96 94 93 92 85 84 88 89 86 87 90 0 10 12 14 16 15 19 18 17 13 0 22 29 34 36 39 38 37 33 32 0 68 55 54 53 56 58 60 59 57 43 0 3 4 6 9 11 8 7 0 69 66 64 61 72 74 62 65 67 0 41 40 42 44 45 48 51 50 31 35 20 -1 -1 -1 -1 -1 -1 -1 -1 -1 -1 -1 -1 -1 -1 -1 -1 ] [ 911 -0 ] [ 0 0 0 ] # 0 # 0 - 
14) [ 83 82 81 79 78 76 71 70 73 77 80 63 0 47 46 49 52 24 25 27 30 28 26 23 21 0 1 2 99 100 97 95 98 91 0 5 75 96 94 93 92 85 84 88 89 86 87 90 0 10 12 14 16 15 19 18 17 13 0 22 29 34 36 39 38 37 33 32 0 68 55 54 53 56 58 60 59 57 43 0 3 4 6 9 11 8 7 0 69 66 64 61 72 74 62 65 67 0 41 40 42 44 45 48 51 50 31 35 20 -1 -1 -1 -1 -1 -1 -1 -1 -1 -1 -1 -1 -1 -1 -1 -1 ] [ 911 -0 ] [ 0 0 0 ] # 0 # 0 - 
15) [ 83 82 81 79 78 76 71 70 73 77 80 63 0 47 46 49 52 24 25 27 30 28 26 23 21 0 1 2 99 100 97 95 98 91 0 5 75 96 94 93 92 85 84 88 89 86 87 90 0 10 12 14 16 15 19 18 17 13 0 22 29 34 36 39 38 37 33 32 0 68 55 54 53 56 58 60 59 57 43 0 3 4 6 9 11 8 7 0 69 66 64 61 72 74 62 65 67 0 41 40 42 44 45 48 51 50 31 35 20 -1 -1 -1 -1 -1 -1 -1 -1 -1 -1 -1 -1 -1 -1 -1 -1 ] [ 911 -0 ] [ 0 0 0 ] # 0 # 0 - 
16) [ 83 82 81 79 78 76 71 70 73 77 80 63 0 47 46 49 52 24 25 27 30 28 26 23 21 0 1 2 99 100 97 95 98 91 0 5 75 96 94 93 92 85 84 88 89 86 87 90 0 10 12 14 16 15 19 18 17 13 0 22 29 34 36 39 38 37 33 32 0 68 55 54 53 56 58 60 59 57 43 0 3 4 6 9 11 8 7 0 69 66 64 61 72 74 62 65 67 0 41 40 42 44 45 48 51 50 31 35 20 -1 -1 -1 -1 -1 -1 -1 -1 -1 -1 -1 -1 -1 -1 -1 -1 ] [ 911 -0 ] [ 0 0 0 ] # 0 # 0 - 
17) [ 83 82 81 79 78 76 71 70 73 77 80 63 0 47 46 49 52 24 25 27 30 28 26 23 21 0 1 2 99 100 97 95 98 91 0 5 75 96 94 93 92 85 84 88 89 86 87 90 0 10 12 14 16 15 19 18 17 13 0 22 29 34 36 39 38 37 33 32 0 68 55 54 53 56 58 60 59 57 43 0 3 4 6 9 11 8 7 0 69 66 64 61 72 74 62 65 67 0 41 40 42 44 45 48 51 50 31 35 20 -1 -1 -1 -1 -1 -1 -1 -1 -1 -1 -1 -1 -1 -1 -1 -1 ] [ 911 -0 ] [ 0 0 0 ] # 0 # 0 - 
18) [ 83 82 81 79 78 76 71 70 73 77 80 63 0 47 46 49 52 24 25 27 30 28 26 23 21 0 1 2 99 100 97 95 98 91 0 5 75 96 94 93 92 85 84 88 89 86 87 90 0 10 12 14 16 15 19 18 17 13 0 22 29 34 36 39 38 37 33 32 0 68 55 54 53 56 58 60 59 57 43 0 3 4 6 9 11 8 7 0 69 66 64 61 72 74 62 65 67 0 41 40 42 44 45 48 51 50 31 35 20 -1 -1 -1 -1 -1 -1 -1 -1 -1 -1 -1 -1 -1 -1 -1 -1 ] [ 911 -0 ] [ 0 0 0 ] # 0 # 0 - 
19) [ 83 82 81 79 78 76 71 70 73 77 80 63 0 47 46 49 52 24 25 27 30 28 26 23 21 0 1 2 99 100 97 95 98 91 0 5 75 96 94 93 92 85 84 88 89 86 87 90 0 10 12 14 16 15 19 18 17 13 0 22 29 34 36 39 38 37 33 32 0 68 55 54 53 56 58 60 59 57 43 0 3 4 6 9 11 8 7 0 69 66 64 61 72 74 62 65 67 0 41 40 42 44 45 48 51 50 31 35 20 -1 -1 -1 -1 -1 -1 -1 -1 -1 -1 -1 -1 -1 -1 -1 -1 ] [ 911 -0 ] [ 0 0 0 ] # 0 # 0 - 
20) [ 83 82 81 79 78 76 71 70 73 77 80 63 0 47 46 49 52 24 25 27 30 28 26 23 21 0 1 2 99 100 97 95 98 91 0 5 75 96 94 93 92 85 84 88 89 86 87 90 0 10 12 14 16 15 19 18 17 13 0 22 29 34 36 39 38 37 33 32 0 68 55 54 53 56 58 60 59 57 43 0 3 4 6 9 11 8 7 0 69 66 64 61 72 74 62 65 67 0 41 40 42 44 45 48 51 50 31 35 20 -1 -1 -1 -1 -1 -1 -1 -1 -1 -1 -1 -1 -1 -1 -1 -1 ] [ 911 -0 ] [ 0 0 0 ] # 0 # 0 - 
21) [ 83 82 81 79 78 76 71 70 73 77 80 63 0 47 46 49 52 24 25 27 30 28 26 23 21 0 1 2 99 100 97 95 98 91 0 5 75 96 94 93 92 85 84 88 89 86 87 90 0 10 12 14 16 15 19 18 17 13 0 22 29 34 36 39 38 37 33 32 0 68 55 54 53 56 58 60 59 57 43 0 3 4 6 9 11 8 7 0 69 66 64 61 72 74 62 65 67 0 41 40 42 44 45 48 51 50 31 35 20 -1 -1 -1 -1 -1 -1 -1 -1 -1 -1 -1 -1 -1 -1 -1 -1 ] [ 911 -0 ] [ 0 0 0 ] # 0 # 0 - 
22) [ 83 82 81 79 78 76 71 70 73 77 80 63 0 47 46 49 52 24 25 27 30 28 26 23 21 0 1 2 99 100 97 95 98 91 0 5 75 96 94 93 92 85 84 88 89 86 87 90 0 10 12 14 16 15 19 18 17 13 0 22 29 34 36 39 38 37 33 32 0 68 55 54 53 56 58 60 59 57 43 0 3 4 6 9 11 8 7 0 69 66 64 61 72 74 62 65 67 0 41 40 42 44 45 48 51 50 31 35 20 -1 -1 -1 -1 -1 -1 -1 -1 -1 -1 -1 -1 -1 -1 -1 -1 ] [ 911 -0 ] [ 0 0 0 ] # 0 # 0 - 
23) [ 83 82 81 79 78 76 71 70 73 77 80 63 0 47 46 49 52 24 25 27 30 28 26 23 21 0 1 2 99 100 97 95 98 91 0 5 75 96 94 93 92 85 84 88 89 86 87 90 0 10 12 14 16 15 19 18 17 13 0 22 29 34 36 39 38 37 33 32 0 68 55 54 53 56 58 60 59 57 43 0 3 4 6 9 11 8 7 0 69 66 64 61 72 74 62 65 67 0 41 40 42 44 45 48 51 50 31 35 20 -1 -1 -1 -1 -1 -1 -1 -1 -1 -1 -1 -1 -1 -1 -1 -1 ] [ 911 -0 ] [ 0 0 0 ] # 0 # 0 - 
24) [ 83 82 81 79 78 76 71 70 73 77 80 63 0 47 46 49 52 24 25 27 30 28 26 23 21 0 1 2 99 100 97 95 98 91 0 5 75 96 94 93 92 85 84 88 89 86 87 90 0 10 12 14 16 15 19 18 17 13 0 22 29 34 36 39 38 37 33 32 0 68 55 54 53 56 58 60 59 57 43 0 3 4 6 9 11 8 7 0 69 66 64 61 72 74 62 65 67 0 41 40 42 44 45 48 51 50 31 35 20 -1 -1 -1 -1 -1 -1 -1 -1 -1 -1 -1 -1 -1 -1 -1 -1 ] [ 911 -0 ] [ 0 0 0 ] # 0 # 0 - 
25) [ 83 82 81 79 78 76 71 70 73 77 80 63 0 47 46 49 52 24 25 27 30 28 26 23 21 0 1 2 99 100 97 95 98 91 0 5 75 96 94 93 92 85 84 88 89 86 87 90 0 10 12 14 16 15 19 18 17 13 0 22 29 34 36 39 38 37 33 32 0 68 55 54 53 56 58 60 59 57 43 0 3 4 6 9 11 8 7 0 69 66 64 61 72 74 62 65 67 0 41 40 42 44 45 48 51 50 31 35 20 -1 -1 -1 -1 -1 -1 -1 -1 -1 -1 -1 -1 -1 -1 -1 -1 ] [ 911 -0 ] [ 0 0 0 ] # 0 # 0 - 
26) [ 83 82 81 79 78 76 71 70 73 77 80 63 0 47 46 49 52 24 25 27 30 28 26 23 21 0 1 2 99 100 97 95 98 91 0 5 75 96 94 93 92 85 84 88 89 86 87 90 0 10 12 14 16 15 19 18 17 13 0 22 29 34 36 39 38 37 33 32 0 68 55 54 53 56 58 60 59 57 43 0 3 4 6 9 11 8 7 0 69 66 64 61 72 74 62 65 67 0 41 40 42 44 45 48 51 50 31 35 20 -1 -1 -1 -1 -1 -1 -1 -1 -1 -1 -1 -1 -1 -1 -1 -1 ] [ 911 -0 ] [ 0 0 0 ] # 0 # 0 - 
27) [ 83 82 81 79 78 76 71 70 73 77 80 63 0 47 46 49 52 24 25 27 30 28 26 23 21 0 1 2 99 100 97 95 98 91 0 5 75 96 94 93 92 85 84 88 89 86 87 90 0 10 12 14 16 15 19 18 17 13 0 22 29 34 36 39 38 37 33 32 0 68 55 54 53 56 58 60 59 57 43 0 3 4 6 9 11 8 7 0 69 66 64 61 72 74 62 65 67 0 41 40 42 44 45 48 51 50 31 35 20 -1 -1 -1 -1 -1 -1 -1 -1 -1 -1 -1 -1 -1 -1 -1 -1 ] [ 911 -0 ] [ 0 0 0 ] # 0 # 0 - 
28) [ 83 82 81 79 78 76 71 70 73 77 80 63 0 47 46 49 52 24 25 27 30 28 26 23 21 0 1 2 99 100 97 95 98 91 0 5 75 96 94 93 92 85 84 88 89 86 87 90 0 10 12 14 16 15 19 18 17 13 0 22 29 34 36 39 38 37 33 32 0 68 55 54 53 56 58 60 59 57 43 0 3 4 6 9 11 8 7 0 69 66 64 61 72 74 62 65 67 0 41 40 42 44 45 48 51 50 31 35 20 -1 -1 -1 -1 -1 -1 -1 -1 -1 -1 -1 -1 -1 -1 -1 -1 ] [ 911 -0 ] [ 0 0 0 ] # 0 # 0 - 
29) [ 83 82 81 79 78 76 71 70 73 77 80 63 0 47 46 49 52 24 25 27 30 28 26 23 21 0 1 2 99 100 97 95 98 91 0 5 75 96 94 93 92 85 84 88 89 86 87 90 0 10 12 14 16 15 19 18 17 13 0 22 29 34 36 39 38 37 33 32 0 68 55 54 53 56 58 60 59 57 43 0 3 4 6 9 11 8 7 0 69 66 64 61 72 74 62 65 67 0 41 40 42 44 45 48 51 50 31 35 20 -1 -1 -1 -1 -1 -1 -1 -1 -1 -1 -1 -1 -1 -1 -1 -1 ] [ 911 -0 ] [ 0 0 0 ] # 0 # 0 - 
30) [ 83 82 81 79 78 76 71 70 73 77 80 63 0 47 46 49 52 24 25 27 30 28 26 23 21 0 1 2 99 100 97 95 98 91 0 5 75 96 94 93 92 85 84 88 89 86 87 90 0 10 12 14 16 15 19 18 17 13 0 22 29 34 36 39 38 37 33 32 0 68 55 54 53 56 58 60 59 57 43 0 3 4 6 9 11 8 7 0 69 66 64 61 72 74 62 65 67 0 41 40 42 44 45 48 51 50 31 35 20 -1 -1 -1 -1 -1 -1 -1 -1 -1 -1 -1 -1 -1 -1 -1 -1 ] [ 911 -0 ] [ 0 0 0 ] # 0 # 0 - 
31) [ 83 82 81 79 78 76 71 70 73 77 80 63 0 47 46 49 52 24 25 27 30 28 26 23 21 0 1 2 99 100 97 95 98 91 0 5 75 96 94 93 92 85 84 88 89 86 87 90 0 10 12 14 16 15 19 18 17 13 0 22 29 34 36 39 38 37 33 32 0 68 55 54 53 56 58 60 59 57 43 0 3 4 6 9 11 8 7 0 69 66 64 61 72 74 62 65 67 0 41 40 42 44 45 48 51 50 31 35 20 -1 -1 -1 -1 -1 -1 -1 -1 -1 -1 -1 -1 -1 -1 -1 -1 ] [ 911 -0 ] [ 0 0 0 ] # 0 # 0 - 
32) [ 83 82 81 79 78 76 71 70 73 77 80 63 0 47 46 49 52 24 25 27 30 28 26 23 21 0 1 2 99 100 97 95 98 91 0 5 75 96 94 93 92 85 84 88 89 86 87 90 0 10 12 14 16 15 19 18 17 13 0 22 29 34 36 39 38 37 33 32 0 68 55 54 53 56 58 60 59 57 43 0 3 4 6 9 11 8 7 0 69 66 64 61 72 74 62 65 67 0 41 40 42 44 45 48 51 50 31 35 20 -1 -1 -1 -1 -1 -1 -1 -1 -1 -1 -1 -1 -1 -1 -1 -1 ] [ 911 -0 ] [ 0 0 0 ] # 0 # 0 - 
33) [ 83 82 81 79 78 76 71 70 73 77 80 63 0 47 46 49 52 24 25 27 30 28 26 23 21 0 1 2 99 100 97 95 98 91 0 5 75 96 94 93 92 85 84 88 89 86 87 90 0 10 12 14 16 15 19 18 17 13 0 22 29 34 36 39 38 37 33 32 0 68 55 54 53 56 58 60 59 57 43 0 3 4 6 9 11 8 7 0 69 66 64 61 72 74 62 65 67 0 41 40 42 44 45 48 51 50 31 35 20 -1 -1 -1 -1 -1 -1 -1 -1 -1 -1 -1 -1 -1 -1 -1 -1 ] [ 911 -0 ] [ 0 0 0 ] # 0 # 0 - 
34) [ 83 82 81 79 78 76 71 70 73 77 80 63 0 47 46 49 52 24 25 27 30 28 26 23 21 0 1 2 99 100 97 95 98 91 0 5 75 96 94 93 92 85 84 88 89 86 87 90 0 10 12 14 16 15 19 18 17 13 0 22 29 34 36 39 38 37 33 32 0 68 55 54 53 56 58 60 59 57 43 0 3 4 6 9 11 8 7 0 69 66 64 61 72 74 62 65 67 0 41 40 42 44 45 48 51 50 31 35 20 -1 -1 -1 -1 -1 -1 -1 -1 -1 -1 -1 -1 -1 -1 -1 -1 ] [ 911 -0 ] [ 0 0 0 ] # 0 # 0 - 
35) [ 83 82 81 79 78 76 71 70 73 77 80 63 0 47 46 49 52 24 25 27 30 28 26 23 21 0 1 2 99 100 97 95 98 91 0 5 75 96 94 93 92 85 84 88 89 86 87 90 0 10 12 14 16 15 19 18 17 13 0 22 29 34 36 39 38 37 33 32 0 68 55 54 53 56 58 60 59 57 43 0 3 4 6 9 11 8 7 0 69 66 64 61 72 74 62 65 67 0 41 40 42 44 45 48 51 50 31 35 20 -1 -1 -1 -1 -1 -1 -1 -1 -1 -1 -1 -1 -1 -1 -1 -1 ] [ 911 -0 ] [ 0 0 0 ] # 0 # 0 - 
36) [ 83 82 81 79 78 76 71 70 73 77 80 63 0 47 46 49 52 24 25 27 30 28 26 23 21 0 1 2 99 100 97 95 98 91 0 5 75 96 94 93 92 85 84 88 89 86 87 90 0 10 12 14 16 15 19 18 17 13 0 22 29 34 36 39 38 37 33 32 0 68 55 54 53 56 58 60 59 57 43 0 3 4 6 9 11 8 7 0 69 66 64 61 72 74 62 65 67 0 41 40 42 44 45 48 51 50 31 35 20 -1 -1 -1 -1 -1 -1 -1 -1 -1 -1 -1 -1 -1 -1 -1 -1 ] [ 911 -0 ] [ 0 0 0 ] # 0 # 0 - 
37) [ 83 82 81 79 78 76 71 70 73 77 80 63 0 47 46 49 52 24 25 27 30 28 26 23 21 0 1 2 99 100 97 95 98 91 0 5 75 96 94 93 92 85 84 88 89 86 87 90 0 10 12 14 16 15 19 18 17 13 0 22 29 34 36 39 38 37 33 32 0 68 55 54 53 56 58 60 59 57 43 0 3 4 6 9 11 8 7 0 69 66 64 61 72 74 62 65 67 0 41 40 42 44 45 48 51 50 31 35 20 -1 -1 -1 -1 -1 -1 -1 -1 -1 -1 -1 -1 -1 -1 -1 -1 ] [ 911 -0 ] [ 0 0 0 ] # 0 # 0 - 
38) [ 83 82 81 79 78 76 71 70 73 77 80 63 0 47 46 49 52 24 25 27 30 28 26 23 21 0 1 2 99 100 97 95 98 91 0 5 75 96 94 93 92 85 84 88 89 86 87 90 0 10 12 14 16 15 19 18 17 13 0 22 29 34 36 39 38 37 33 32 0 68 55 54 53 56 58 60 59 57 43 0 3 4 6 9 11 8 7 0 69 66 64 61 72 74 62 65 67 0 41 40 42 44 45 48 51 50 31 35 20 -1 -1 -1 -1 -1 -1 -1 -1 -1 -1 -1 -1 -1 -1 -1 -1 ] [ 911 -0 ] [ 0 0 0 ] # 0 # 0 - 
39) [ 83 82 81 79 78 76 71 70 73 77 80 63 0 47 46 49 52 24 25 27 30 28 26 23 21 0 1 2 99 100 97 95 98 91 0 5 75 96 94 93 92 85 84 88 89 86 87 90 0 10 12 14 16 15 19 18 17 13 0 22 29 34 36 39 38 37 33 32 0 68 55 54 53 56 58 60 59 57 43 0 3 4 6 9 11 8 7 0 69 66 64 61 72 74 62 65 67 0 41 40 42 44 45 48 51 50 31 35 20 -1 -1 -1 -1 -1 -1 -1 -1 -1 -1 -1 -1 -1 -1 -1 -1 ] [ 911 -0 ] [ 0 0 0 ] # 0 # 0 - 
40) [ 83 82 81 79 78 76 71 70 73 77 80 63 0 47 46 49 52 24 25 27 30 28 26 23 21 0 1 2 99 100 97 95 98 91 0 5 75 96 94 93 92 85 84 88 89 86 87 90 0 10 12 14 16 15 19 18 17 13 0 22 29 34 36 39 38 37 33 32 0 68 55 54 53 56 58 60 59 57 43 0 3 4 6 9 11 8 7 0 69 66 64 61 72 74 62 65 67 0 41 40 42 44 45 48 51 50 31 35 20 -1 -1 -1 -1 -1 -1 -1 -1 -1 -1 -1 -1 -1 -1 -1 -1 ] [ 911 -0 ] [ 0 0 0 ] # 0 # 0 - 
41) [ 83 82 81 79 78 76 71 70 73 77 80 63 0 47 46 49 52 24 25 27 30 28 26 23 21 0 1 2 99 100 97 95 98 91 0 5 75 96 94 93 92 85 84 88 89 86 87 90 0 10 12 14 16 15 19 18 17 13 0 22 29 34 36 39 38 37 33 32 0 68 55 54 53 56 58 60 59 57 43 0 3 4 6 9 11 8 7 0 69 66 64 61 72 74 62 65 67 0 41 40 42 44 45 48 51 50 31 35 20 -1 -1 -1 -1 -1 -1 -1 -1 -1 -1 -1 -1 -1 -1 -1 -1 ] [ 911 -0 ] [ 0 0 0 ] # 0 # 0 - 
42) [ 83 82 81 79 78 76 71 70 73 77 80 63 0 47 46 49 52 24 25 27 30 28 26 23 21 0 1 2 99 100 97 95 98 91 0 5 75 96 94 93 92 85 84 88 89 86 87 90 0 10 12 14 16 15 19 18 17 13 0 22 29 34 36 39 38 37 33 32 0 68 55 54 53 56 58 60 59 57 43 0 3 4 6 9 11 8 7 0 69 66 64 61 72 74 62 65 67 0 41 40 42 44 45 48 51 50 31 35 20 -1 -1 -1 -1 -1 -1 -1 -1 -1 -1 -1 -1 -1 -1 -1 -1 ] [ 911 -0 ] [ 0 0 0 ] # 0 # 0 - 
43) [ 83 82 81 79 78 76 71 70 73 77 80 63 0 47 46 49 52 24 25 27 30 28 26 23 21 0 1 2 99 100 97 95 98 91 0 5 75 96 94 93 92 85 84 88 89 86 87 90 0 10 12 14 16 15 19 18 17 13 0 22 29 34 36 39 38 37 33 32 0 68 55 54 53 56 58 60 59 57 43 0 3 4 6 9 11 8 7 0 69 66 64 61 72 74 62 65 67 0 41 40 42 44 45 48 51 50 31 35 20 -1 -1 -1 -1 -1 -1 -1 -1 -1 -1 -1 -1 -1 -1 -1 -1 ] [ 911 -0 ] [ 0 0 0 ] # 0 # 0 - 
44) [ 83 82 81 79 78 76 71 70 73 77 80 63 0 47 46 49 52 24 25 27 30 28 26 23 21 0 1 2 99 100 97 95 98 91 0 5 75 96 94 93 92 85 84 88 89 86 87 90 0 10 12 14 16 15 19 18 17 13 0 22 29 34 36 39 38 37 33 32 0 68 55 54 53 56 58 60 59 57 43 0 3 4 6 9 11 8 7 0 69 66 64 61 72 74 62 65 67 0 41 40 42 44 45 48 51 50 31 35 20 -1 -1 -1 -1 -1 -1 -1 -1 -1 -1 -1 -1 -1 -1 -1 -1 ] [ 911 -0 ] [ 0 0 0 ] # 0 # 0 - 
45) [ 83 82 81 79 78 76 71 70 73 77 80 63 0 47 46 49 52 24 25 27 30 28 26 23 21 0 1 2 99 100 97 95 98 91 0 5 75 96 94 93 92 85 84 88 89 86 87 90 0 10 12 14 16 15 19 18 17 13 0 22 29 34 36 39 38 37 33 32 0 68 55 54 53 56 58 60 59 57 43 0 3 4 6 9 11 8 7 0 69 66 64 61 72 74 62 65 67 0 41 40 42 44 45 48 51 50 31 35 20 -1 -1 -1 -1 -1 -1 -1 -1 -1 -1 -1 -1 -1 -1 -1 -1 ] [ 911 -0 ] [ 0 0 0 ] # 0 # 0 - 
46) [ 83 82 81 79 78 76 71 70 73 77 80 63 0 47 46 49 52 24 25 27 30 28 26 23 21 0 1 2 99 100 97 95 98 91 0 5 75 96 94 93 92 85 84 88 89 86 87 90 0 10 12 14 16 15 19 18 17 13 0 22 29 34 36 39 38 37 33 32 0 68 55 54 53 56 58 60 59 57 43 0 3 4 6 9 11 8 7 0 69 66 64 61 72 74 62 65 67 0 41 40 42 44 45 48 51 50 31 35 20 -1 -1 -1 -1 -1 -1 -1 -1 -1 -1 -1 -1 -1 -1 -1 -1 ] [ 911 -0 ] [ 0 0 0 ] # 0 # 0 - 
47) [ 83 82 81 79 78 76 71 70 73 77 80 63 0 47 46 49 52 24 25 27 30 28 26 23 21 0 1 2 99 100 97 95 98 91 0 5 75 96 94 93 92 85 84 88 89 86 87 90 0 10 12 14 16 15 19 18 17 13 0 22 29 34 36 39 38 37 33 32 0 68 55 54 53 56 58 60 59 57 43 0 3 4 6 9 11 8 7 0 69 66 64 61 72 74 62 65 67 0 41 40 42 44 45 48 51 50 31 35 20 -1 -1 -1 -1 -1 -1 -1 -1 -1 -1 -1 -1 -1 -1 -1 -1 ] [ 911 -0 ] [ 0 0 0 ] # 0 # 0 - 
48) [ 83 82 81 79 78 76 71 70 73 77 80 63 0 47 46 49 52 24 25 27 30 28 26 23 21 0 1 2 99 100 97 95 98 91 0 5 75 96 94 93 92 85 84 88 89 86 87 90 0 10 12 14 16 15 19 18 17 13 0 22 29 34 36 39 38 37 33 32 0 68 55 54 53 56 58 60 59 57 43 0 3 4 6 9 11 8 7 0 69 66 64 61 72 74 62 65 67 0 41 40 42 44 45 48 51 50 31 35 20 -1 -1 -1 -1 -1 -1 -1 -1 -1 -1 -1 -1 -1 -1 -1 -1 ] [ 911 -0 ] [ 0 0 0 ] # 0 # 0 - 
49) [ 83 82 81 79 78 76 71 70 73 77 80 63 0 47 46 49 52 24 25 27 30 28 26 23 21 0 1 2 99 100 97 95 98 91 0 5 75 96 94 93 92 85 84 88 89 86 87 90 0 10 12 14 16 15 19 18 17 13 0 22 29 34 36 39 38 37 33 32 0 68 55 54 53 56 58 60 59 57 43 0 3 4 6 9 11 8 7 0 69 66 64 61 72 74 62 65 67 0 41 40 42 44 45 48 51 50 31 35 20 -1 -1 -1 -1 -1 -1 -1 -1 -1 -1 -1 -1 -1 -1 -1 -1 ] [ 911 -0 ] [ 0 0 0 ] # 0 # 0 - 
50) [ 83 82 81 79 78 76 71 70 73 77 80 63 0 47 46 49 52 24 25 27 30 28 26 23 21 0 1 2 99 100 97 95 98 91 0 5 75 96 94 93 92 85 84 88 89 86 87 90 0 10 12 14 16 15 19 18 17 13 0 22 29 34 36 39 38 37 33 32 0 68 55 54 53 56 58 60 59 57 43 0 3 4 6 9 11 8 7 0 69 66 64 61 72 74 62 65 67 0 41 40 42 44 45 48 51 50 31 35 20 -1 -1 -1 -1 -1 -1 -1 -1 -1 -1 -1 -1 -1 -1 -1 -1 ] [ 911 -0 ] [ 0 0 0 ] # 0 # 0 - 
51) [ 83 82 81 79 78 76 71 70 73 77 80 63 0 47 46 49 52 24 25 27 30 28 26 23 21 0 1 2 99 100 97 95 98 91 0 5 75 96 94 93 92 85 84 88 89 86 87 90 0 10 12 14 16 15 19 18 17 13 0 22 29 34 36 39 38 37 33 32 0 68 55 54 53 56 58 60 59 57 43 0 3 4 6 9 11 8 7 0 69 66 64 61 72 74 62 65 67 0 41 40 42 44 45 48 51 50 31 35 20 -1 -1 -1 -1 -1 -1 -1 -1 -1 -1 -1 -1 -1 -1 -1 -1 ] [ 911 -0 ] [ 0 0 0 ] # 0 # 0 - 
52) [ 83 82 81 79 78 76 71 70 73 77 80 63 0 47 46 49 52 24 25 27 30 28 26 23 21 0 1 2 99 100 97 95 98 91 0 5 75 96 94 93 92 85 84 88 89 86 87 90 0 10 12 14 16 15 19 18 17 13 0 22 29 34 36 39 38 37 33 32 0 68 55 54 53 56 58 60 59 57 43 0 3 4 6 9 11 8 7 0 69 66 64 61 72 74 62 65 67 0 41 40 42 44 45 48 51 50 31 35 20 -1 -1 -1 -1 -1 -1 -1 -1 -1 -1 -1 -1 -1 -1 -1 -1 ] [ 911 -0 ] [ 0 0 0 ] # 0 # 0 - 
53) [ 83 82 81 79 78 76 71 70 73 77 80 63 0 47 46 49 52 24 25 27 30 28 26 23 21 0 1 2 99 100 97 95 98 91 0 5 75 96 94 93 92 85 84 88 89 86 87 90 0 10 12 14 16 15 19 18 17 13 0 22 29 34 36 39 38 37 33 32 0 68 55 54 53 56 58 60 59 57 43 0 3 4 6 9 11 8 7 0 69 66 64 61 72 74 62 65 67 0 41 40 42 44 45 48 51 50 31 35 20 -1 -1 -1 -1 -1 -1 -1 -1 -1 -1 -1 -1 -1 -1 -1 -1 ] [ 911 -0 ] [ 0 0 0 ] # 0 # 0 - 
54) [ 83 82 81 79 78 76 71 70 73 77 80 63 0 47 46 49 52 24 25 27 30 28 26 23 21 0 1 2 99 100 97 95 98 91 0 5 75 96 94 93 92 85 84 88 89 86 87 90 0 10 12 14 16 15 19 18 17 13 0 22 29 34 36 39 38 37 33 32 0 68 55 54 53 56 58 60 59 57 43 0 3 4 6 9 11 8 7 0 69 66 64 61 72 74 62 65 67 0 41 40 42 44 45 48 51 50 31 35 20 -1 -1 -1 -1 -1 -1 -1 -1 -1 -1 -1 -1 -1 -1 -1 -1 ] [ 911 -0 ] [ 0 0 0 ] # 0 # 0 - 
55) [ 83 82 81 79 78 76 71 70 73 77 80 63 0 47 46 49 52 24 25 27 30 28 26 23 21 0 1 2 99 100 97 95 98 91 0 5 75 96 94 93 92 85 84 88 89 86 87 90 0 10 12 14 16 15 19 18 17 13 0 22 29 34 36 39 38 37 33 32 0 68 55 54 53 56 58 60 59 57 43 0 3 4 6 9 11 8 7 0 69 66 64 61 72 74 62 65 67 0 41 40 42 44 45 48 51 50 31 35 20 -1 -1 -1 -1 -1 -1 -1 -1 -1 -1 -1 -1 -1 -1 -1 -1 ] [ 911 -0 ] [ 0 0 0 ] # 0 # 0 - 
56) [ 83 82 81 79 78 76 71 70 73 77 80 63 0 47 46 49 52 24 25 27 30 28 26 23 21 0 1 2 99 100 97 95 98 91 0 5 75 96 94 93 92 85 84 88 89 86 87 90 0 10 12 14 16 15 19 18 17 13 0 22 29 34 36 39 38 37 33 32 0 68 55 54 53 56 58 60 59 57 43 0 3 4 6 9 11 8 7 0 69 66 64 61 72 74 62 65 67 0 41 40 42 44 45 48 51 50 31 35 20 -1 -1 -1 -1 -1 -1 -1 -1 -1 -1 -1 -1 -1 -1 -1 -1 ] [ 911 -0 ] [ 0 0 0 ] # 0 # 0 - 
57) [ 83 82 81 79 78 76 71 70 73 77 80 63 0 47 46 49 52 24 25 27 30 28 26 23 21 0 1 2 99 100 97 95 98 91 0 5 75 96 94 93 92 85 84 88 89 86 87 90 0 10 12 14 16 15 19 18 17 13 0 22 29 34 36 39 38 37 33 32 0 68 55 54 53 56 58 60 59 57 43 0 3 4 6 9 11 8 7 0 69 66 64 61 72 74 62 65 67 0 41 40 42 44 45 48 51 50 31 35 20 -1 -1 -1 -1 -1 -1 -1 -1 -1 -1 -1 -1 -1 -1 -1 -1 ] [ 911 -0 ] [ 0 0 0 ] # 0 # 0 - 
58) [ 83 82 81 79 78 76 71 70 73 77 80 63 0 47 46 49 52 24 25 27 30 28 26 23 21 0 1 2 99 100 97 95 98 91 0 5 75 96 94 93 92 85 84 88 89 86 87 90 0 10 12 14 16 15 19 18 17 13 0 22 29 34 36 39 38 37 33 32 0 68 55 54 53 56 58 60 59 57 43 0 3 4 6 9 11 8 7 0 69 66 64 61 72 74 62 65 67 0 41 40 42 44 45 48 51 50 31 35 20 -1 -1 -1 -1 -1 -1 -1 -1 -1 -1 -1 -1 -1 -1 -1 -1 ] [ 911 -0 ] [ 0 0 0 ] # 0 # 0 - 
59) [ 83 82 81 79 78 76 71 70 73 77 80 63 0 47 46 49 52 24 25 27 30 28 26 23 21 0 1 2 99 100 97 95 98 91 0 5 75 96 94 93 92 85 84 88 89 86 87 90 0 10 12 14 16 15 19 18 17 13 0 22 29 34 36 39 38 37 33 32 0 68 55 54 53 56 58 60 59 57 43 0 3 4 6 9 11 8 7 0 69 66 64 61 72 74 62 65 67 0 41 40 42 44 45 48 51 50 31 35 20 -1 -1 -1 -1 -1 -1 -1 -1 -1 -1 -1 -1 -1 -1 -1 -1 ] [ 911 -0 ] [ 0 0 0 ] # 0 # 0 - 
60) [ 83 82 81 79 78 76 71 70 73 77 80 63 0 47 46 49 52 24 25 27 30 28 26 23 21 0 1 2 99 100 97 95 98 91 0 5 75 96 94 93 92 85 84 88 89 86 87 90 0 10 12 14 16 15 19 18 17 13 0 22 29 34 36 39 38 37 33 32 0 68 55 54 53 56 58 60 59 57 43 0 3 4 6 9 11 8 7 0 69 66 64 61 72 74 62 65 67 0 41 40 42 44 45 48 51 50 31 35 20 -1 -1 -1 -1 -1 -1 -1 -1 -1 -1 -1 -1 -1 -1 -1 -1 ] [ 911 -0 ] [ 0 0 0 ] # 0 # 0 - 
61) [ 83 82 81 79 78 76 71 70 73 77 80 63 0 47 46 49 52 24 25 27 30 28 26 23 21 0 1 2 99 100 97 95 98 91 0 5 75 96 94 93 92 85 84 88 89 86 87 90 0 10 12 14 16 15 19 18 17 13 0 22 29 34 36 39 38 37 33 32 0 68 55 54 53 56 58 60 59 57 43 0 3 4 6 9 11 8 7 0 69 66 64 61 72 74 62 65 67 0 41 40 42 44 45 48 51 50 31 35 20 -1 -1 -1 -1 -1 -1 -1 -1 -1 -1 -1 -1 -1 -1 -1 -1 ] [ 911 -0 ] [ 0 0 0 ] # 0 # 0 - 
62) [ 83 82 81 79 78 76 71 70 73 77 80 63 0 47 46 49 52 24 25 27 30 28 26 23 21 0 1 2 99 100 97 95 98 91 0 5 75 96 94 93 92 85 84 88 89 86 87 90 0 10 12 14 16 15 19 18 17 13 0 22 29 34 36 39 38 37 33 32 0 68 55 54 53 56 58 60 59 57 43 0 3 4 6 9 11 8 7 0 69 66 64 61 72 74 62 65 67 0 41 40 42 44 45 48 51 50 31 35 20 -1 -1 -1 -1 -1 -1 -1 -1 -1 -1 -1 -1 -1 -1 -1 -1 ] [ 911 -0 ] [ 0 0 0 ] # 0 # 0 - 
63) [ 83 82 81 79 78 76 71 70 73 77 80 63 0 47 46 49 52 24 25 27 30 28 26 23 21 0 1 2 99 100 97 95 98 91 0 5 75 96 94 93 92 85 84 88 89 86 87 90 0 10 12 14 16 15 19 18 17 13 0 22 29 34 36 39 38 37 33 32 0 68 55 54 53 56 58 60 59 57 43 0 3 4 6 9 11 8 7 0 69 66 64 61 72 74 62 65 67 0 41 40 42 44 45 48 51 50 31 35 20 -1 -1 -1 -1 -1 -1 -1 -1 -1 -1 -1 -1 -1 -1 -1 -1 ] [ 911 -0 ] [ 0 0 0 ] # 0 # 0 - 
64) [ 83 82 81 79 78 76 71 70 73 77 80 63 0 47 46 49 52 24 25 27 30 28 26 23 21 0 1 2 99 100 97 95 98 91 0 5 75 96 94 93 92 85 84 88 89 86 87 90 0 10 12 14 16 15 19 18 17 13 0 22 29 34 36 39 38 37 33 32 0 68 55 54 53 56 58 60 59 57 43 0 3 4 6 9 11 8 7 0 69 66 64 61 72 74 62 65 67 0 41 40 42 44 45 48 51 50 31 35 20 -1 -1 -1 -1 -1 -1 -1 -1 -1 -1 -1 -1 -1 -1 -1 -1 ] [ 911 -0 ] [ 0 0 0 ] # 0 # 0 - 
65) [ 83 82 81 79 78 76 71 70 73 77 80 63 0 47 46 49 52 24 25 27 30 28 26 23 21 0 1 2 99 100 97 95 98 91 0 5 75 96 94 93 92 85 84 88 89 86 87 90 0 10 12 14 16 15 19 18 17 13 0 22 29 34 36 39 38 37 33 32 0 68 55 54 53 56 58 60 59 57 43 0 3 4 6 9 11 8 7 0 69 66 64 61 72 74 62 65 67 0 41 40 42 44 45 48 51 50 31 35 20 -1 -1 -1 -1 -1 -1 -1 -1 -1 -1 -1 -1 -1 -1 -1 -1 ] [ 911 -0 ] [ 0 0 0 ] # 0 # 0 - 
66) [ 83 82 81 79 78 76 71 70 73 77 80 63 0 47 46 49 52 24 25 27 30 28 26 23 21 0 1 2 99 100 97 95 98 91 0 5 75 96 94 93 92 85 84 88 89 86 87 90 0 10 12 14 16 15 19 18 17 13 0 22 29 34 36 39 38 37 33 32 0 68 55 54 53 56 58 60 59 57 43 0 3 4 6 9 11 8 7 0 69 66 64 61 72 74 62 65 67 0 41 40 42 44 45 48 51 50 31 35 20 -1 -1 -1 -1 -1 -1 -1 -1 -1 -1 -1 -1 -1 -1 -1 -1 ] [ 911 -0 ] [ 0 0 0 ] # 0 # 0 - 
67) [ 83 82 81 79 78 76 71 70 73 77 80 63 0 47 46 49 52 24 25 27 30 28 26 23 21 0 1 2 99 100 97 95 98 91 0 5 75 96 94 93 92 85 84 88 89 86 87 90 0 10 12 14 16 15 19 18 17 13 0 22 29 34 36 39 38 37 33 32 0 68 55 54 53 56 58 60 59 57 43 0 3 4 6 9 11 8 7 0 69 66 64 61 72 74 62 65 67 0 41 40 42 44 45 48 51 50 31 35 20 -1 -1 -1 -1 -1 -1 -1 -1 -1 -1 -1 -1 -1 -1 -1 -1 ] [ 911 -0 ] [ 0 0 0 ] # 0 # 0 - 
68) [ 83 82 81 79 78 76 71 70 73 77 80 63 0 47 46 49 52 24 25 27 30 28 26 23 21 0 1 2 99 100 97 95 98 91 0 5 75 96 94 93 92 85 84 88 89 86 87 90 0 10 12 14 16 15 19 18 17 13 0 22 29 34 36 39 38 37 33 32 0 68 55 54 53 56 58 60 59 57 43 0 3 4 6 9 11 8 7 0 69 66 64 61 72 74 62 65 67 0 41 40 42 44 45 48 51 50 31 35 20 -1 -1 -1 -1 -1 -1 -1 -1 -1 -1 -1 -1 -1 -1 -1 -1 ] [ 911 -0 ] [ 0 0 0 ] # 0 # 0 - 
69) [ 83 82 81 79 78 76 71 70 73 77 80 63 0 47 46 49 52 24 25 27 30 28 26 23 21 0 1 2 99 100 97 95 98 91 0 5 75 96 94 93 92 85 84 88 89 86 87 90 0 10 12 14 16 15 19 18 17 13 0 22 29 34 36 39 38 37 33 32 0 68 55 54 53 56 58 60 59 57 43 0 3 4 6 9 11 8 7 0 69 66 64 61 72 74 62 65 67 0 41 40 42 44 45 48 51 50 31 35 20 -1 -1 -1 -1 -1 -1 -1 -1 -1 -1 -1 -1 -1 -1 -1 -1 ] [ 911 -0 ] [ 0 0 0 ] # 0 # 0 - 
70) [ 83 82 81 79 78 76 71 70 73 77 80 63 0 47 46 49 52 24 25 27 30 28 26 23 21 0 1 2 99 100 97 95 98 91 0 5 75 96 94 93 92 85 84 88 89 86 87 90 0 10 12 14 16 15 19 18 17 13 0 22 29 34 36 39 38 37 33 32 0 68 55 54 53 56 58 60 59 57 43 0 3 4 6 9 11 8 7 0 69 66 64 61 72 74 62 65 67 0 41 40 42 44 45 48 51 50 31 35 20 -1 -1 -1 -1 -1 -1 -1 -1 -1 -1 -1 -1 -1 -1 -1 -1 ] [ 911 -0 ] [ 0 0 0 ] # 0 # 0 - 
71) [ 83 82 81 79 78 76 71 70 73 77 80 63 0 47 46 49 52 24 25 27 30 28 26 23 21 0 1 2 99 100 97 95 98 91 0 5 75 96 94 93 92 85 84 88 89 86 87 90 0 10 12 14 16 15 19 18 17 13 0 22 29 34 36 39 38 37 33 32 0 68 55 54 53 56 58 60 59 57 43 0 3 4 6 9 11 8 7 0 69 66 64 61 72 74 62 65 67 0 41 40 42 44 45 48 51 50 31 35 20 -1 -1 -1 -1 -1 -1 -1 -1 -1 -1 -1 -1 -1 -1 -1 -1 ] [ 911 -0 ] [ 0 0 0 ] # 0 # 0 - 
72) [ 83 82 81 79 78 76 71 70 73 77 80 63 0 47 46 49 52 24 25 27 30 28 26 23 21 0 1 2 99 100 97 95 98 91 0 5 75 96 94 93 92 85 84 88 89 86 87 90 0 10 12 14 16 15 19 18 17 13 0 22 29 34 36 39 38 37 33 32 0 68 55 54 53 56 58 60 59 57 43 0 3 4 6 9 11 8 7 0 69 66 64 61 72 74 62 65 67 0 41 40 42 44 45 48 51 50 31 35 20 -1 -1 -1 -1 -1 -1 -1 -1 -1 -1 -1 -1 -1 -1 -1 -1 ] [ 911 -0 ] [ 0 0 0 ] # 0 # 0 - 
73) [ 83 82 81 79 78 76 71 70 73 77 80 63 0 47 46 49 52 24 25 27 30 28 26 23 21 0 1 2 99 100 97 95 98 91 0 5 75 96 94 93 92 85 84 88 89 86 87 90 0 10 12 14 16 15 19 18 17 13 0 22 29 34 36 39 38 37 33 32 0 68 55 54 53 56 58 60 59 57 43 0 3 4 6 9 11 8 7 0 69 66 64 61 72 74 62 65 67 0 41 40 42 44 45 48 51 50 31 35 20 -1 -1 -1 -1 -1 -1 -1 -1 -1 -1 -1 -1 -1 -1 -1 -1 ] [ 911 -0 ] [ 0 0 0 ] # 0 # 0 - 
74) [ 83 82 81 79 78 76 71 70 73 77 80 63 0 47 46 49 52 24 25 27 30 28 26 23 21 0 1 2 99 100 97 95 98 91 0 5 75 96 94 93 92 85 84 88 89 86 87 90 0 10 12 14 16 15 19 18 17 13 0 22 29 34 36 39 38 37 33 32 0 68 55 54 53 56 58 60 59 57 43 0 3 4 6 9 11 8 7 0 69 66 64 61 72 74 62 65 67 0 41 40 42 44 45 48 51 50 31 35 20 -1 -1 -1 -1 -1 -1 -1 -1 -1 -1 -1 -1 -1 -1 -1 -1 ] [ 911 -0 ] [ 0 0 0 ] # 0 # 0 - 
75) [ 83 82 81 79 78 76 71 70 73 77 80 63 0 47 46 49 52 24 25 27 30 28 26 23 21 0 1 2 99 100 97 95 98 91 0 5 75 96 94 93 92 85 84 88 89 86 87 90 0 10 12 14 16 15 19 18 17 13 0 22 29 34 36 39 38 37 33 32 0 68 55 54 53 56 58 60 59 57 43 0 3 4 6 9 11 8 7 0 69 66 64 61 72 74 62 65 67 0 41 40 42 44 45 48 51 50 31 35 20 -1 -1 -1 -1 -1 -1 -1 -1 -1 -1 -1 -1 -1 -1 -1 -1 ] [ 911 -0 ] [ 0 0 0 ] # 0 # 0 - 
76) [ 83 82 81 79 78 76 71 70 73 77 80 63 0 47 46 49 52 24 25 27 30 28 26 23 21 0 1 2 99 100 97 95 98 91 0 5 75 96 94 93 92 85 84 88 89 86 87 90 0 10 12 14 16 15 19 18 17 13 0 22 29 34 36 39 38 37 33 32 0 68 55 54 53 56 58 60 59 57 43 0 3 4 6 9 11 8 7 0 69 66 64 61 72 74 62 65 67 0 41 40 42 44 45 48 51 50 31 35 20 -1 -1 -1 -1 -1 -1 -1 -1 -1 -1 -1 -1 -1 -1 -1 -1 ] [ 911 -0 ] [ 0 0 0 ] # 0 # 0 - 
77) [ 83 82 81 79 78 76 71 70 73 77 80 63 0 47 46 49 52 24 25 27 30 28 26 23 21 0 1 2 99 100 97 95 98 91 0 5 75 96 94 93 92 85 84 88 89 86 87 90 0 10 12 14 16 15 19 18 17 13 0 22 29 34 36 39 38 37 33 32 0 68 55 54 53 56 58 60 59 57 43 0 3 4 6 9 11 8 7 0 69 66 64 61 72 74 62 65 67 0 41 40 42 44 45 48 51 50 31 35 20 -1 -1 -1 -1 -1 -1 -1 -1 -1 -1 -1 -1 -1 -1 -1 -1 ] [ 911 -0 ] [ 0 0 0 ] # 0 # 0 - 
78) [ 83 82 81 79 78 76 71 70 73 77 80 63 0 47 46 49 52 24 25 27 30 28 26 23 21 0 1 2 99 100 97 95 98 91 0 5 75 96 94 93 92 85 84 88 89 86 87 90 0 10 12 14 16 15 19 18 17 13 0 22 29 34 36 39 38 37 33 32 0 68 55 54 53 56 58 60 59 57 43 0 3 4 6 9 11 8 7 0 69 66 64 61 72 74 62 65 67 0 41 40 42 44 45 48 51 50 31 35 20 -1 -1 -1 -1 -1 -1 -1 -1 -1 -1 -1 -1 -1 -1 -1 -1 ] [ 911 -0 ] [ 0 0 0 ] # 0 # 0 - 
79) [ 83 82 81 79 78 76 71 70 73 77 80 63 0 47 46 49 52 24 25 27 30 28 26 23 21 0 1 2 99 100 97 95 98 91 0 5 75 96 94 93 92 85 84 88 89 86 87 90 0 10 12 14 16 15 19 18 17 13 0 22 29 34 36 39 38 37 33 32 0 68 55 54 53 56 58 60 59 57 43 0 3 4 6 9 11 8 7 0 69 66 64 61 72 74 62 65 67 0 41 40 42 44 45 48 51 50 31 35 20 -1 -1 -1 -1 -1 -1 -1 -1 -1 -1 -1 -1 -1 -1 -1 -1 ] [ 911 -0 ] [ 0 0 0 ] # 0 # 0 - 
80) [ 83 82 81 79 78 76 71 70 73 77 80 63 0 47 46 49 52 24 25 27 30 28 26 23 21 0 1 2 99 100 97 95 98 91 0 5 75 96 94 93 92 85 84 88 89 86 87 90 0 10 12 14 16 15 19 18 17 13 0 22 29 34 36 39 38 37 33 32 0 68 55 54 53 56 58 60 59 57 43 0 3 4 6 9 11 8 7 0 69 66 64 61 72 74 62 65 67 0 41 40 42 44 45 48 51 50 31 35 20 -1 -1 -1 -1 -1 -1 -1 -1 -1 -1 -1 -1 -1 -1 -1 -1 ] [ 911 -0 ] [ 0 0 0 ] # 0 # 0 - 
81) [ 83 82 81 79 78 76 71 70 73 77 80 63 0 47 46 49 52 24 25 27 30 28 26 23 21 0 1 2 99 100 97 95 98 91 0 5 75 96 94 93 92 85 84 88 89 86 87 90 0 10 12 14 16 15 19 18 17 13 0 22 29 34 36 39 38 37 33 32 0 68 55 54 53 56 58 60 59 57 43 0 3 4 6 9 11 8 7 0 69 66 64 61 72 74 62 65 67 0 41 40 42 44 45 48 51 50 31 35 20 -1 -1 -1 -1 -1 -1 -1 -1 -1 -1 -1 -1 -1 -1 -1 -1 ] [ 911 -0 ] [ 0 0 0 ] # 0 # 0 - 
82) [ 83 82 81 79 78 76 71 70 73 77 80 63 0 47 46 49 52 24 25 27 30 28 26 23 21 0 1 2 99 100 97 95 98 91 0 5 75 96 94 93 92 85 84 88 89 86 87 90 0 10 12 14 16 15 19 18 17 13 0 22 29 34 36 39 38 37 33 32 0 68 55 54 53 56 58 60 59 57 43 0 3 4 6 9 11 8 7 0 69 66 64 61 72 74 62 65 67 0 41 40 42 44 45 48 51 50 31 35 20 -1 -1 -1 -1 -1 -1 -1 -1 -1 -1 -1 -1 -1 -1 -1 -1 ] [ 911 -0 ] [ 0 0 0 ] # 0 # 0 - 
83) [ 83 82 81 79 78 76 71 70 73 77 80 63 0 47 46 49 52 24 25 27 30 28 26 23 21 0 1 2 99 100 97 95 98 91 0 5 75 96 94 93 92 85 84 88 89 86 87 90 0 10 12 14 16 15 19 18 17 13 0 22 29 34 36 39 38 37 33 32 0 68 55 54 53 56 58 60 59 57 43 0 3 4 6 9 11 8 7 0 69 66 64 61 72 74 62 65 67 0 41 40 42 44 45 48 51 50 31 35 20 -1 -1 -1 -1 -1 -1 -1 -1 -1 -1 -1 -1 -1 -1 -1 -1 ] [ 911 -0 ] [ 0 0 0 ] # 0 # 0 - 
84) [ 83 82 81 79 78 76 71 70 73 77 80 63 0 47 46 49 52 24 25 27 30 28 26 23 21 0 1 2 99 100 97 95 98 91 0 5 75 96 94 93 92 85 84 88 89 86 87 90 0 10 12 14 16 15 19 18 17 13 0 22 29 34 36 39 38 37 33 32 0 68 55 54 53 56 58 60 59 57 43 0 3 4 6 9 11 8 7 0 69 66 64 61 72 74 62 65 67 0 41 40 42 44 45 48 51 50 31 35 20 -1 -1 -1 -1 -1 -1 -1 -1 -1 -1 -1 -1 -1 -1 -1 -1 ] [ 911 -0 ] [ 0 0 0 ] # 0 # 0 - 
85) [ 83 82 81 79 78 76 71 70 73 77 80 63 0 47 46 49 52 24 25 27 30 28 26 23 21 0 1 2 99 100 97 95 98 91 0 5 75 96 94 93 92 85 84 88 89 86 87 90 0 10 12 14 16 15 19 18 17 13 0 22 29 34 36 39 38 37 33 32 0 68 55 54 53 56 58 60 59 57 43 0 3 4 6 9 11 8 7 0 69 66 64 61 72 74 62 65 67 0 41 40 42 44 45 48 51 50 31 35 20 -1 -1 -1 -1 -1 -1 -1 -1 -1 -1 -1 -1 -1 -1 -1 -1 ] [ 911 -0 ] [ 0 0 0 ] # 0 # 0 - 
86) [ 83 82 81 79 78 76 71 70 73 77 80 63 0 47 46 49 52 24 25 27 30 28 26 23 21 0 1 2 99 100 97 95 98 91 0 5 75 96 94 93 92 85 84 88 89 86 87 90 0 10 12 14 16 15 19 18 17 13 0 22 29 34 36 39 38 37 33 32 0 68 55 54 53 56 58 60 59 57 43 0 3 4 6 9 11 8 7 0 69 66 64 61 72 74 62 65 67 0 41 40 42 44 45 48 51 50 31 35 20 -1 -1 -1 -1 -1 -1 -1 -1 -1 -1 -1 -1 -1 -1 -1 -1 ] [ 911 -0 ] [ 0 0 0 ] # 0 # 0 - 
87) [ 83 82 81 79 78 76 71 70 73 77 80 63 0 47 46 49 52 24 25 27 30 28 26 23 21 0 1 2 99 100 97 95 98 91 0 5 75 96 94 93 92 85 84 88 89 86 87 90 0 10 12 14 16 15 19 18 17 13 0 22 29 34 36 39 38 37 33 32 0 68 55 54 53 56 58 60 59 57 43 0 3 4 6 9 11 8 7 0 69 66 64 61 72 74 62 65 67 0 41 40 42 44 45 48 51 50 31 35 20 -1 -1 -1 -1 -1 -1 -1 -1 -1 -1 -1 -1 -1 -1 -1 -1 ] [ 911 -0 ] [ 0 0 0 ] # 0 # 0 - 
88) [ 83 82 81 79 78 76 71 70 73 77 80 63 0 47 46 49 52 24 25 27 30 28 26 23 21 0 1 2 99 100 97 95 98 91 0 5 75 96 94 93 92 85 84 88 89 86 87 90 0 10 12 14 16 15 19 18 17 13 0 22 29 34 36 39 38 37 33 32 0 68 55 54 53 56 58 60 59 57 43 0 3 4 6 9 11 8 7 0 69 66 64 61 72 74 62 65 67 0 41 40 42 44 45 48 51 50 31 35 20 -1 -1 -1 -1 -1 -1 -1 -1 -1 -1 -1 -1 -1 -1 -1 -1 ] [ 911 -0 ] [ 0 0 0 ] # 0 # 0 - 
89) [ 83 82 81 79 78 76 71 70 73 77 80 63 0 47 46 49 52 24 25 27 30 28 26 23 21 0 1 2 99 100 97 95 98 91 0 5 75 96 94 93 92 85 84 88 89 86 87 90 0 10 12 14 16 15 19 18 17 13 0 22 29 34 36 39 38 37 33 32 0 68 55 54 53 56 58 60 59 57 43 0 3 4 6 9 11 8 7 0 69 66 64 61 72 74 62 65 67 0 41 40 42 44 45 48 51 50 31 35 20 -1 -1 -1 -1 -1 -1 -1 -1 -1 -1 -1 -1 -1 -1 -1 -1 ] [ 911 -0 ] [ 0 0 0 ] # 0 # 0 - 
90) [ 83 82 81 79 78 76 71 70 73 77 80 63 0 47 46 49 52 24 25 27 30 28 26 23 21 0 1 2 99 100 97 95 98 91 0 5 75 96 94 93 92 85 84 88 89 86 87 90 0 10 12 14 16 15 19 18 17 13 0 22 29 34 36 39 38 37 33 32 0 68 55 54 53 56 58 60 59 57 43 0 3 4 6 9 11 8 7 0 69 66 64 61 72 74 62 65 67 0 41 40 42 44 45 48 51 50 31 35 20 -1 -1 -1 -1 -1 -1 -1 -1 -1 -1 -1 -1 -1 -1 -1 -1 ] [ 911 -0 ] [ 0 0 0 ] # 0 # 0 - 
91) [ 83 82 81 79 78 76 71 70 73 77 80 63 0 47 46 49 52 24 25 27 30 28 26 23 21 0 1 2 99 100 97 95 98 91 0 5 75 96 94 93 92 85 84 88 89 86 87 90 0 10 12 14 16 15 19 18 17 13 0 22 29 34 36 39 38 37 33 32 0 68 55 54 53 56 58 60 59 57 43 0 3 4 6 9 11 8 7 0 69 66 64 61 72 74 62 65 67 0 41 40 42 44 45 48 51 50 31 35 20 -1 -1 -1 -1 -1 -1 -1 -1 -1 -1 -1 -1 -1 -1 -1 -1 ] [ 911 -0 ] [ 0 0 0 ] # 0 # 0 - 
92) [ 83 82 81 79 78 76 71 70 73 77 80 63 0 47 46 49 52 24 25 27 30 28 26 23 21 0 1 2 99 100 97 95 98 91 0 5 75 96 94 93 92 85 84 88 89 86 87 90 0 10 12 14 16 15 19 18 17 13 0 22 29 34 36 39 38 37 33 32 0 68 55 54 53 56 58 60 59 57 43 0 3 4 6 9 11 8 7 0 69 66 64 61 72 74 62 65 67 0 41 40 42 44 45 48 51 50 31 35 20 -1 -1 -1 -1 -1 -1 -1 -1 -1 -1 -1 -1 -1 -1 -1 -1 ] [ 911 -0 ] [ 0 0 0 ] # 0 # 0 - 
93) [ 83 82 81 79 78 76 71 70 73 77 80 63 0 47 46 49 52 24 25 27 30 28 26 23 21 0 1 2 99 100 97 95 98 91 0 5 75 96 94 93 92 85 84 88 89 86 87 90 0 10 12 14 16 15 19 18 17 13 0 22 29 34 36 39 38 37 33 32 0 68 55 54 53 56 58 60 59 57 43 0 3 4 6 9 11 8 7 0 69 66 64 61 72 74 62 65 67 0 41 40 42 44 45 48 51 50 31 35 20 -1 -1 -1 -1 -1 -1 -1 -1 -1 -1 -1 -1 -1 -1 -1 -1 ] [ 911 -0 ] [ 0 0 0 ] # 0 # 0 - 
94) [ 83 82 81 79 78 76 71 70 73 77 80 63 0 47 46 49 52 24 25 27 30 28 26 23 21 0 1 2 99 100 97 95 98 91 0 5 75 96 94 93 92 85 84 88 89 86 87 90 0 10 12 14 16 15 19 18 17 13 0 22 29 34 36 39 38 37 33 32 0 68 55 54 53 56 58 60 59 57 43 0 3 4 6 9 11 8 7 0 69 66 64 61 72 74 62 65 67 0 41 40 42 44 45 48 51 50 31 35 20 -1 -1 -1 -1 -1 -1 -1 -1 -1 -1 -1 -1 -1 -1 -1 -1 ] [ 911 -0 ] [ 0 0 0 ] # 0 # 0 - 
95) [ 83 82 81 79 78 76 71 70 73 77 80 63 0 47 46 49 52 24 25 27 30 28 26 23 21 0 1 2 99 100 97 95 98 91 0 5 75 96 94 93 92 85 84 88 89 86 87 90 0 10 12 14 16 15 19 18 17 13 0 22 29 34 36 39 38 37 33 32 0 68 55 54 53 56 58 60 59 57 43 0 3 4 6 9 11 8 7 0 69 66 64 61 72 74 62 65 67 0 41 40 42 44 45 48 51 50 31 35 20 -1 -1 -1 -1 -1 -1 -1 -1 -1 -1 -1 -1 -1 -1 -1 -1 ] [ 911 -0 ] [ 0 0 0 ] # 0 # 0 - 
96) [ 83 82 81 79 78 76 71 70 73 77 80 63 0 47 46 49 52 24 25 27 30 28 26 23 21 0 1 2 99 100 97 95 98 91 0 5 75 96 94 93 92 85 84 88 89 86 87 90 0 10 12 14 16 15 19 18 17 13 0 22 29 34 36 39 38 37 33 32 0 68 55 54 53 56 58 60 59 57 43 0 3 4 6 9 11 8 7 0 69 66 64 61 72 74 62 65 67 0 41 40 42 44 45 48 51 50 31 35 20 -1 -1 -1 -1 -1 -1 -1 -1 -1 -1 -1 -1 -1 -1 -1 -1 ] [ 911 -0 ] [ 0 0 0 ] # 0 # 0 - 
97) [ 83 82 81 79 78 76 71 70 73 77 80 63 0 47 46 49 52 24 25 27 30 28 26 23 21 0 1 2 99 100 97 95 98 91 0 5 75 96 94 93 92 85 84 88 89 86 87 90 0 10 12 14 16 15 19 18 17 13 0 22 29 34 36 39 38 37 33 32 0 68 55 54 53 56 58 60 59 57 43 0 3 4 6 9 11 8 7 0 69 66 64 61 72 74 62 65 67 0 41 40 42 44 45 48 51 50 31 35 20 -1 -1 -1 -1 -1 -1 -1 -1 -1 -1 -1 -1 -1 -1 -1 -1 ] [ 911 -0 ] [ 0 0 0 ] # 0 # 0 - 
98) [ 83 82 81 79 78 76 71 70 73 77 80 63 0 47 46 49 52 24 25 27 30 28 26 23 21 0 1 2 99 100 97 95 98 91 0 5 75 96 94 93 92 85 84 88 89 86 87 90 0 10 12 14 16 15 19 18 17 13 0 22 29 34 36 39 38 37 33 32 0 68 55 54 53 56 58 60 59 57 43 0 3 4 6 9 11 8 7 0 69 66 64 61 72 74 62 65 67 0 41 40 42 44 45 48 51 50 31 35 20 -1 -1 -1 -1 -1 -1 -1 -1 -1 -1 -1 -1 -1 -1 -1 -1 ] [ 911 -0 ] [ 0 0 0 ] # 0 # 0 - 
99) [ 83 82 81 79 78 76 71 70 73 77 80 63 0 47 46 49 52 24 25 27 30 28 26 23 21 0 1 2 99 100 97 95 98 91 0 5 75 96 94 93 92 85 84 88 89 86 87 90 0 10 12 14 16 15 19 18 17 13 0 22 29 34 36 39 38 37 33 32 0 68 55 54 53 56 58 60 59 57 43 0 3 4 6 9 11 8 7 0 69 66 64 61 72 74 62 65 67 0 41 40 42 44 45 48 51 50 31 35 20 -1 -1 -1 -1 -1 -1 -1 -1 -1 -1 -1 -1 -1 -1 -1 -1 ] [ 911 -0 ] [ 0 0 0 ] # 0 # 0 - 
100) [ 83 82 81 79 78 76 71 70 73 77 80 63 0 47 46 49 52 24 25 27 30 28 26 23 21 0 1 2 99 100 97 95 98 91 0 5 75 96 94 93 92 85 84 88 89 86 87 90 0 10 12 14 16 15 19 18 17 13 0 22 29 34 36 39 38 37 33 32 0 68 55 54 53 56 58 60 59 57 43 0 3 4 6 9 11 8 7 0 69 66 64 61 72 74 62 65 67 0 41 40 42 44 45 48 51 50 31 35 20 -1 -1 -1 -1 -1 -1 -1 -1 -1 -1 -1 -1 -1 -1 -1 -1 ] [ 911 -0 ] [ 0 0 0 ] # 0 # 0 - 